<number of tasks>
29

<cycle time>
41

<task times>
1 7
2 19
3 15
4 5
5 12
6 10
7 8
8 16
9 2
10 6
11 21
12 10
13 9
14 4
15 14
16 7
17 14
18 17
19 10
20 16
21 1
22 9
23 25
24 14
25 14
26 2
27 10
28 7
29 20

<precedence relations>
1,3
1,25
2,6
2,26
3,4
4,5
5,8
5,13
6,8
7,9
7,12
7,25
8,11
8,16
9,10
10,14
10,15
11,17
12,15
13,17
14,16
15,19
16,18
17,20
18,22
19,21
20,23
21,22
22,23
23,24
23,28
24,29
25,29
26,27
27,29
28,29

<setup times forward>
1,2:2
1,6:2
1,7:2
1,9:2
1,10:2
1,12:2
1,14:1
1,15:2
1,19:1
1,21:3
1,26:2
1,27:2
2,1:2
2,3:2
2,4:2
2,5:1
2,13:1
2,14:1
2,19:1
2,21:1
2,25:2
3,2:2
3,6:2
3,7:2
3,9:2
3,10:2
3,12:2
3,14:1
3,15:2
3,19:1
3,21:3
3,26:2
3,27:2
4,2:2
4,5:1
4,6:2
4,7:2
4,9:2
4,10:2
4,12:2
4,14:1
4,15:2
4,19:1
4,21:3
4,26:2
4,27:2
5,2:1
5,6:1
5,7:1
5,9:1
5,10:1
5,12:1
5,15:1
5,21:2
5,25:1
5,26:1
5,27:1
6,1:2
6,3:2
6,4:2
6,5:1
6,8:1
6,13:1
6,14:1
6,19:1
6,21:1
6,25:2
7,1:2
7,3:2
7,4:2
7,5:1
7,8:1
7,11:1
7,13:1
7,17:1
7,25:2
8,7:1
8,9:1
8,10:1
8,12:1
8,15:1
8,21:2
8,25:1
8,26:1
8,27:1
9,1:2
9,3:2
9,4:2
9,5:1
9,8:1
9,11:1
9,13:1
9,17:1
9,25:2
10,1:2
10,3:2
10,4:2
10,5:1
10,8:1
10,11:1
10,13:1
10,14:1
10,17:1
10,25:2
11,7:1
11,9:1
11,10:1
11,12:1
11,15:1
11,17:2
11,18:2
11,21:2
11,22:2
11,25:1
11,26:1
11,27:1
12,1:2
12,3:2
12,4:2
12,5:1
12,8:1
12,11:1
12,13:1
12,14:1
12,16:1
12,17:1
12,18:1
12,25:2
13,2:1
13,6:1
13,7:1
13,9:1
13,10:1
13,12:1
13,15:1
13,17:2
13,18:2
13,21:2
13,22:2
13,25:1
13,26:1
13,27:1
14,1:1
14,2:1
14,3:1
14,4:1
14,6:1
14,12:1
14,15:1
14,17:2
14,20:1
14,21:2
14,25:1
14,26:1
14,27:1
15,1:2
15,3:2
15,4:2
15,5:1
15,8:1
15,11:1
15,13:1
15,14:1
15,16:1
15,17:1
15,18:1
15,19:1
15,25:2
16,12:1
16,15:1
16,17:2
16,18:2
16,20:1
16,21:2
16,25:1
16,26:1
16,27:1
17,7:1
17,9:1
17,10:1
17,12:1
17,14:2
17,15:1
17,16:2
17,19:2
17,20:1
17,25:3
17,26:1
17,27:1
18,11:2
18,12:1
18,13:2
18,15:1
18,19:2
18,20:1
18,25:3
18,26:1
18,27:1
19,1:1
19,2:1
19,3:1
19,4:1
19,6:1
19,17:2
19,18:2
19,20:1
19,21:2
19,25:1
19,26:1
19,27:1
20,14:1
20,16:1
20,18:1
20,19:1
20,21:1
20,22:1
20,25:2
21,1:3
21,2:1
21,3:3
21,4:3
21,5:2
21,6:1
21,8:2
21,11:2
21,13:2
21,14:2
21,16:2
21,20:1
21,25:3
21,26:1
21,27:1
22,11:2
22,13:2
22,20:1
22,23:1
22,25:3
22,26:1
22,27:1
23,24:1
23,25:2
23,28:1
24,25:3
24,26:1
24,27:1
25,2:2
25,5:1
25,6:2
25,8:1
25,9:2
25,10:2
25,11:1
25,12:2
25,13:1
25,14:1
25,15:2
25,16:1
25,17:3
25,18:3
25,19:1
25,20:2
25,21:3
25,22:3
25,23:2
25,24:3
25,26:2
25,27:2
25,28:3
25,29:3
26,1:2
26,3:2
26,4:2
26,5:1
26,8:1
26,11:1
26,13:1
26,14:1
26,16:1
26,17:1
26,18:1
26,19:1
26,21:1
26,22:1
26,24:1
26,25:2
26,28:1
27,1:2
27,3:2
27,4:2
27,5:1
27,8:1
27,11:1
27,13:1
27,14:1
27,16:1
27,17:1
27,18:1
27,19:1
27,21:1
27,22:1
27,24:1
27,25:2
27,28:1
27,29:1
28,25:3
28,26:1
28,27:1

<setup times backward>
1,2:2
1,6:2
1,7:2
1,9:2
1,10:2
1,12:2
1,14:1
1,15:2
1,19:1
1,21:3
1,26:2
1,27:2
2,21:1
3,2:2
3,6:2
3,7:2
3,9:2
3,10:2
3,12:2
3,14:1
3,15:2
3,19:1
3,21:3
3,26:2
3,27:2
4,2:2
4,6:2
4,7:2
4,9:2
4,10:2
4,12:2
4,14:1
4,15:2
4,19:1
4,21:3
4,26:2
4,27:2
5,2:1
5,6:1
5,7:1
5,9:1
5,10:1
5,12:1
5,15:1
5,21:2
5,26:1
5,27:1
6,21:1
7,17:1
8,2:1
8,6:1
8,7:1
8,9:1
8,10:1
8,12:1
8,15:1
8,21:2
8,26:1
8,27:1
9,17:1
10,17:1
11,2:1
11,6:1
11,7:1
11,9:1
11,10:1
11,12:1
11,15:1
11,18:2
11,21:2
11,22:2
11,26:1
11,27:1
12,17:1
12,18:1
13,2:1
13,6:1
13,7:1
13,9:1
13,10:1
13,12:1
13,15:1
13,18:2
13,21:2
13,22:2
13,26:1
13,27:1
14,2:1
14,6:1
14,7:1
14,9:1
14,10:1
14,12:1
14,15:1
14,17:2
14,20:1
14,21:2
14,26:1
14,27:1
15,17:1
15,18:1
16,2:1
16,6:1
16,7:1
16,9:1
16,10:1
16,12:1
16,15:1
16,17:2
16,20:1
16,21:2
16,26:1
16,27:1
19,2:1
19,6:1
19,7:1
19,9:1
19,10:1
19,12:1
19,15:1
19,17:2
19,18:2
19,20:1
19,26:1
19,27:1
20,17:1
20,18:1
20,21:1
20,22:1
23,17:1
23,18:1
23,21:1
23,22:1
25,2:2
25,5:1
25,6:2
25,7:2
25,8:1
25,9:2
25,10:2
25,11:1
25,12:2
25,13:1
25,14:1
25,15:2
25,16:1
25,17:3
25,18:3
25,19:1
25,20:2
25,21:3
25,22:3
25,23:2
25,24:3
25,26:2
25,27:2
25,28:3
26,17:1
26,18:1
26,21:1
26,22:1
26,24:1
26,28:1
27,17:1
27,18:1
27,21:1
27,22:1
27,24:1
27,28:1

<end>

<optimal SALBP-1 value>
8


<rand seed>
467321153

